9
1 1
2 8
3 6
4 9
5 5
6 1
7 2
8 9
28
0 1 21
1 0 21
0 2 34
2 0 34
0 3 85
3 0 85
0 4 43
4 0 43
0 5 100
5 0 100
0 6 13
6 0 13
0 7 30
7 0 30
0 8 24
8 0 24
1 3 36
1 5 11
1 6 24
1 7 68
2 5 63
2 6 38
2 7 95
3 6 45
4 5 78
4 6 57
5 7 11
5 8 15
